
Gurobi 5.6.3 (mac64) logging started Thu Aug 28 13:56:10 2014


Gurobi 5.6.3 (mac64) logging started Thu Aug 28 14:28:17 2014


Gurobi 5.6.3 (mac64) logging started Thu Aug 28 14:43:51 2014


Gurobi 5.6.3 (mac64) logging started Wed Sep 10 16:44:24 2014


Gurobi 5.6.3 (mac64) logging started Mon Sep 29 16:35:48 2014

